c colouring generated by benchmark framework
p edge 197 3925
v 1 1
v 2 0
v 3 5
v 4 24
v 5 21
v 6 20
v 7 17
v 8 15
v 9 8
v 10 10
v 11 14
v 12 13
v 13 11
v 14 9
v 15 23
v 16 12
v 17 0
v 18 22
v 19 21
v 20 19
v 21 18
v 22 17
v 23 11
v 24 9
v 25 5
v 26 1
v 27 28
v 28 27
v 29 26
v 30 25
v 31 24
v 32 23
v 33 45
v 34 32
v 35 46
v 36 47
v 37 47
v 38 31
v 39 2
v 40 3
v 41 4
v 42 6
v 43 7
v 44 8
v 45 10
v 46 12
v 47 2
v 48 3
v 49 4
v 50 6
v 51 7
v 52 16
v 53 18
v 54 19
v 55 22
v 56 14
v 57 15
v 58 0
v 59 16
v 60 13
v 61 0
v 62 20
v 63 29
v 64 30
v 65 25
v 66 0
v 67 26
v 68 27
v 69 0
v 70 0
v 71 29
v 72 0
v 73 45
v 74 28
v 75 27
v 76 0
v 77 31
v 78 0
v 79 0
v 80 30
v 81 0
v 82 0
v 83 31
v 84 0
v 85 32
v 86 0
v 87 33
v 88 34
v 89 0
v 90 35
v 91 36
v 92 0
v 93 39
v 94 0
v 95 0
v 96 40
v 97 0
v 98 0
v 99 35
v 100 0
v 101 0
v 102 41
v 103 0
v 104 37
v 105 0
v 106 0
v 107 38
v 108 42
v 109 44
v 110 0
v 111 39
v 112 40
v 113 0
v 114 41
v 115 0
v 116 0
v 117 43
v 118 42
v 119 0
v 120 44
v 121 31
v 122 0
v 123 0
v 124 0
v 125 31
v 126 31
v 127 31
v 128 31
v 129 31
v 130 31
v 131 31
v 132 0
v 133 0
v 134 0
v 135 31
v 136 31
v 137 31
v 138 32
v 139 31
v 140 0
v 141 0
v 142 46
v 143 0
v 144 47
v 145 31
v 146 48
v 147 32
v 148 48
v 149 33
v 150 32
v 151 32
v 152 48
v 153 31
v 154 31
v 155 0
v 156 0
v 157 47
v 158 0
v 159 0
v 160 31
v 161 33
v 162 32
v 163 32
v 164 32
v 165 31
v 166 31
v 167 0
v 168 0
v 169 46
v 170 0
v 171 0
v 172 0
v 173 32
v 174 32
v 175 0
v 176 32
v 177 32
v 178 32
v 179 0
v 180 0
v 181 46
v 182 0
v 183 0
v 184 30
v 185 0
v 186 0
v 187 29
v 188 0
v 189 20
v 190 0
v 191 25
v 192 25
v 193 0
v 194 0
v 195 30
v 196 0
v 197 29
